TITLE : T3 Cantilever Beam - Coarse Mesh
        (16:13:37 on June 10, 2025, Tuesday)

C O N T R O L   I N F O R M A T I O N

      NUMBER OF NODAL POINTS . . . . . . . . . . (NUMNP)  =     6
      NUMBER OF ELEMENT GROUPS . . . . . . . . . (NUMEG)  =     1
      NUMBER OF LOAD CASES . . . . . . . . . . . (NLCASE) =     1
      SOLUTION MODE  . . . . . . . . . . . . . . (MODEX)  =     1
         EQ.0, DATA CHECK
         EQ.1, EXECUTION

 N O D A L   P O I N T   D A T A

    NODE       BOUNDARY                         NODAL POINT
   NUMBER  CONDITION  CODES                     COORDINATES
        1    1    1    1       0.00000e+00    0.00000e+00    0.00000e+00
        2    1    1    1       0.00000e+00    5.00000e-01    0.00000e+00
        3    1    1    1       0.00000e+00    1.00000e+00    0.00000e+00
        4    0    0    1       1.00000e+00    0.00000e+00    0.00000e+00
        5    0    0    1       1.00000e+00    5.00000e-01    0.00000e+00
        6    0    0    1       1.00000e+00    1.00000e+00    0.00000e+00

 EQUATION NUMBERS

   NODE NUMBER   DEGREES OF FREEDOM
        N           X    Y    Z
        1           0    0    0
        2           0    0    0
        3           0    0    0
        4           1    2    0
        5           3    4    0
        6           5    6    0

 L O A D   C A S E   D A T A

     LOAD CASE NUMBER . . . . . . . =     1
     NUMBER OF CONCENTRATED LOADS . =     1

    NODE       DIRECTION      LOAD
   NUMBER                   MAGNITUDE
      6            2       -1.00000e+03

 E L E M E N T   G R O U P   D A T A


 E L E M E N T   D E F I N I T I O N

 ELEMENT TYPE  . . . . . . . . . . . . .( NPAR(1) ) . . =    3
     EQ.1, TRUSS ELEMENTS
     EQ.2, ELEMENTS CURRENTLY
     EQ.3, T3 ELEMENTS
     EQ.4, NOT AVAILABLE

 NUMBER OF ELEMENTS. . . . . . . . . . .( NPAR(2) ) . . =    4

    T3 ELEMENT INFORMATION:
    ELEMENT     NODE    NODE    NODE    MATERIAL
    NUMBER      I       J       K      SET NUMBER
        1    1        4        5           1
        2    2        1        5           1
        3    5        6        2           1
        4    3        2        6           1

   Ele =        Location Matrix
        1    0    0    1    2    3    4
        2    0    0    0    0    3    4
        3    3    4    5    6    0    0
        4    0    0    0    0    5    6

*** _Debug_ *** Column Heights
       0       1       2       3       2       3

*** _Debug_ *** Address of Diagonal Element
       1       2       4       7      11      14      18

	TOTAL SYSTEM DATA

     NUMBER OF EQUATIONS . . . . . . . . . . . . . .(NEQ) = 6
     NUMBER OF MATRIX ELEMENTS . . . . . . . . . . .(NWK) = 17
     MAXIMUM HALF BANDWIDTH  . . . . . . . . . . . .(MK ) = 4
     MEAN HALF BANDWIDTH . . . . . . . . . . . . . .(MM ) = 2


*** _Debug_ *** Banded stiffness matrix
   1.38462e+05   2.50962e+05  -7.50000e+04   2.76923e+05   4.03846e+04  -8.07692e+04
   5.01923e+05  -7.50000e+04  -2.30769e+05   3.46154e+04   1.38462e+05   4.03846e+04
  -8.07692e+04   2.50962e+05   0.00000e+00  -2.30769e+05   3.46154e+04

*** _Debug_ *** Full stiffness matrix
   1.38462e+05  -7.50000e+04  -8.07692e+04   3.46154e+04   0.00000e+00   0.00000e+00
  -7.50000e+04   2.50962e+05   4.03846e+04  -2.30769e+05   0.00000e+00   0.00000e+00
  -8.07692e+04   4.03846e+04   2.76923e+05  -7.50000e+04  -8.07692e+04   3.46154e+04
   3.46154e+04  -2.30769e+05  -7.50000e+04   5.01923e+05   4.03846e+04  -2.30769e+05
   0.00000e+00   0.00000e+00  -8.07692e+04   4.03846e+04   1.38462e+05   0.00000e+00
   0.00000e+00   0.00000e+00   3.46154e+04  -2.30769e+05   0.00000e+00   2.50962e+05

*** _Debug_ *** Banded stiffness matrix
   1.38462e+05   2.10337e+05  -5.41667e-01   2.29754e+05  -1.60000e-02  -5.83333e-01
   2.64811e+05  -2.53315e-01  -1.00800e+00   2.50000e-01   1.08568e+05   7.52408e-02
  -3.51547e-01   5.19568e+04   2.65938e-01  -8.38336e-01   1.50663e-01

*** _Debug_ *** Full stiffness matrix
   1.38462e+05  -5.41667e-01  -5.83333e-01   2.50000e-01   0.00000e+00   0.00000e+00
  -5.41667e-01   2.10337e+05  -1.60000e-02  -1.00800e+00   0.00000e+00   0.00000e+00
  -5.83333e-01  -1.60000e-02   2.29754e+05  -2.53315e-01  -3.51547e-01   1.50663e-01
   2.50000e-01  -1.00800e+00  -2.53315e-01   2.64811e+05   7.52408e-02  -8.38336e-01
   0.00000e+00   0.00000e+00  -3.51547e-01   7.52408e-02   1.08568e+05   2.65938e-01
   0.00000e+00   0.00000e+00   1.50663e-01  -8.38336e-01   2.65938e-01   5.19568e+04

 LOAD CASE    1


*** _Debug_ *** Displacement vector
  -4.58557e-03  -1.66443e-02   5.14295e-04  -1.65204e-02   5.11845e-03
  -1.92468e-02

 D I S P L A C E M E N T S

  NODE           X-DISPLACEMENT    Y-DISPLACEMENT    Z-DISPLACEMENT
    1               0.00000e+00       0.00000e+00       0.00000e+00
    2               0.00000e+00       0.00000e+00       0.00000e+00
    3               0.00000e+00       0.00000e+00       0.00000e+00
    4              -4.58557e-03      -1.66443e-02       0.00000e+00
    5               5.14295e-04      -1.65204e-02       0.00000e+00
    6               5.11845e-03      -1.92468e-02       0.00000e+00

 S T R E S S  C A L C U L A T I O N S  F O R  E L E M E N T  G R O U P    1

  ELEMENT       STRESS_XX       STRESS_YY       STRESS_XY
  NUMBER
    1    -1.04105e+03    -2.60262e+02    -5.20524e+02
    2     1.18684e+02     3.56051e+01    -1.33434e+03
    3    -2.58816e+02    -1.22273e+03    -5.90590e+02
    4     1.18118e+03     3.54354e+02    -1.55455e+03


 S O L U T I O N   T I M E   L O G   I N   S E C 

     TIME FOR INPUT PHASE = 0.00000e+00
     TIME FOR CALCULATION OF STIFFNESS MATRIX = 0.00000e+00
     TIME FOR FACTORIZATION AND LOAD CASE SOLUTIONS = 0.00000e+00

     T O T A L   S O L U T I O N   T I M E = 0.00000e+00

