TITLE : T3 Cantilever Beam - Coarse Mesh
        (10:53:36 on June 10, 2025, Tuesday)

C O N T R O L   I N F O R M A T I O N

      NUMBER OF NODAL POINTS . . . . . . . . . . (NUMNP)  =     6
      NUMBER OF ELEMENT GROUPS . . . . . . . . . (NUMEG)  =     1
      NUMBER OF LOAD CASES . . . . . . . . . . . (NLCASE) =     1
      SOLUTION MODE  . . . . . . . . . . . . . . (MODEX)  =     1
         EQ.0, DATA CHECK
         EQ.1, EXECUTION

 N O D A L   P O I N T   D A T A

    NODE       BOUNDARY                         NODAL POINT
   NUMBER  CONDITION  CODES                     COORDINATES
        1    1    1    1       0.00000e+00    0.00000e+00    0.00000e+00
        2    1    1    1       0.00000e+00    5.00000e-01    0.00000e+00
        3    1    1    1       0.00000e+00    1.00000e+00    0.00000e+00
        4    0    0    1       1.00000e+00    0.00000e+00    0.00000e+00
        5    0    0    1       1.00000e+00    5.00000e-01    0.00000e+00
        6    0    0    1       1.00000e+00    1.00000e+00    0.00000e+00

 EQUATION NUMBERS

   NODE NUMBER   DEGREES OF FREEDOM
        N           X    Y    Z
        1           0    0    0
        2           0    0    0
        3           0    0    0
        4           1    2    0
        5           3    4    0
        6           5    6    0

 L O A D   C A S E   D A T A

     LOAD CASE NUMBER . . . . . . . =     1
     NUMBER OF CONCENTRATED LOADS . =     1

    NODE       DIRECTION      LOAD
   NUMBER                   MAGNITUDE
      6            2       -1.00000e+03

 E L E M E N T   G R O U P   D A T A


 E L E M E N T   D E F I N I T I O N

 ELEMENT TYPE  . . . . . . . . . . . . .( NPAR(1) ) . . =    3
     EQ.1, TRUSS ELEMENTS
     EQ.2, ELEMENTS CURRENTLY
     EQ.3, NOT AVAILABLE

 NUMBER OF ELEMENTS. . . . . . . . . . .( NPAR(2) ) . . =    4

    T3 ELEMENT INFORMATION:
    ELEMENT     NODE    NODE    NODE    MATERIAL
    NUMBER      I       J       K      SET NUMBER
        1    1        4        5           1
        2    2        5        1           1
        3    5        6        2           1
        4    3        6        2           1

   Ele =        Location Matrix
        1    0    0    1    2    3    4
        2    0    0    3    4    0    0
        3    3    4    5    6    0    0
        4    0    0    5    6    0    0

*** _Debug_ *** Column Heights
       0       1       2       3       2       3

*** _Debug_ *** Address of Diagonal Element
       1       2       4       7      11      14      18

	TOTAL SYSTEM DATA

     NUMBER OF EQUATIONS . . . . . . . . . . . . . .(NEQ) = 6
     NUMBER OF MATRIX ELEMENTS . . . . . . . . . . .(NWK) = 17
     MAXIMUM HALF BANDWIDTH  . . . . . . . . . . . .(MK ) = 4
     MEAN HALF BANDWIDTH . . . . . . . . . . . . . .(MM ) = 2


*** _Debug_ *** Banded stiffness matrix
  -5.76923e+04   3.46154e+04  -2.01923e+04   8.07692e+04  -4.03846e+04  -8.07692e+04
  -6.92308e+04   2.30769e+05   3.46154e+04  -2.30769e+05  -1.38462e+05   4.03846e+04
   8.07692e+04   7.50000e+04  -2.50962e+05   0.00000e+00   2.30769e+05

*** _Debug_ *** Full stiffness matrix
  -5.76923e+04  -2.01923e+04  -8.07692e+04  -2.30769e+05   0.00000e+00   0.00000e+00
  -2.01923e+04   3.46154e+04  -4.03846e+04   3.46154e+04   0.00000e+00   0.00000e+00
  -8.07692e+04  -4.03846e+04   8.07692e+04   2.30769e+05   8.07692e+04   2.30769e+05
  -2.30769e+05   3.46154e+04   2.30769e+05  -6.92308e+04   4.03846e+04   0.00000e+00
   0.00000e+00   0.00000e+00   8.07692e+04   4.03846e+04  -1.38462e+05  -2.50962e+05
   0.00000e+00   0.00000e+00   2.30769e+05   0.00000e+00  -2.50962e+05   7.50000e+04

*** _Debug_ *** Banded stiffness matrix
  -5.76923e+04   4.16827e+04   3.50000e-01   1.90325e+05  -2.90657e-01   1.40000e+00
  -1.27835e+06   3.08622e+00   2.76817e+00   4.00000e+00  -1.38605e+05   1.63403e-01
   4.24376e-01   5.82042e+05   1.67755e+00   5.57127e-01   1.21250e+00

*** _Debug_ *** Full stiffness matrix
  -5.76923e+04   3.50000e-01   1.40000e+00   4.00000e+00   0.00000e+00   0.00000e+00
   3.50000e-01   4.16827e+04  -2.90657e-01   2.76817e+00   0.00000e+00   0.00000e+00
   1.40000e+00  -2.90657e-01   1.90325e+05   3.08622e+00   4.24376e-01   1.21250e+00
   4.00000e+00   2.76817e+00   3.08622e+00  -1.27835e+06   1.63403e-01   5.57127e-01
   0.00000e+00   0.00000e+00   4.24376e-01   1.63403e-01  -1.38605e+05   1.67755e+00
   0.00000e+00   0.00000e+00   1.21250e+00   5.57127e-01   1.67755e+00   5.82042e+05

 LOAD CASE    1


*** _Debug_ *** Displacement vector
  -5.11883e-04  -1.53217e-03  -6.40571e-04   4.86235e-04   2.88219e-03
  -1.71809e-03

 D I S P L A C E M E N T S

  NODE           X-DISPLACEMENT    Y-DISPLACEMENT    Z-DISPLACEMENT
    1               0.00000e+00       0.00000e+00       0.00000e+00
    2               0.00000e+00       0.00000e+00       0.00000e+00
    3               0.00000e+00       0.00000e+00       0.00000e+00
    4              -5.11883e-04      -1.53217e-03       0.00000e+00
    5              -6.40571e-04       4.86235e-04       0.00000e+00
    6               2.88219e-03      -1.71809e-03       0.00000e+00

 S T R E S S  C A L C U L A T I O N S  F O R  E L E M E N T  G R O U P    1

  ELEMENT       STRESS_XX       STRESS_YY       STRESS_XY
  NUMBER
    1     1.61344e+02     8.96132e+02    -1.44540e+02
    2     1.47824e+02     4.43472e+01    -3.92728e+01
    3    -4.53038e+02    -1.06173e+03     6.08334e+02
    4    -6.65121e+02    -1.99536e+02     1.38769e+02


 S O L U T I O N   T I M E   L O G   I N   S E C 

     TIME FOR INPUT PHASE = 1.56250e-02
     TIME FOR CALCULATION OF STIFFNESS MATRIX = 0.00000e+00
     TIME FOR FACTORIZATION AND LOAD CASE SOLUTIONS = 0.00000e+00

     T O T A L   S O L U T I O N   T I M E = 1.56250e-02

