TITLE : T3 Cantilever Beam - 2 Unit
        (20:38:52 on June 12, 2025, Thursday)

C O N T R O L   I N F O R M A T I O N

      NUMBER OF NODAL POINTS . . . . . . . . . . (NUMNP)  =     4
      NUMBER OF ELEMENT GROUPS . . . . . . . . . (NUMEG)  =     1
      NUMBER OF LOAD CASES . . . . . . . . . . . (NLCASE) =     1
      SOLUTION MODE  . . . . . . . . . . . . . . (MODEX)  =     1
         EQ.0, DATA CHECK
         EQ.1, EXECUTION

 N O D A L   P O I N T   D A T A

    NODE       BOUNDARY                         NODAL POINT
   NUMBER  CONDITION  CODES                     COORDINATES
        1    1    1    1       0.00000e+00    0.00000e+00    0.00000e+00
        2    0    0    1       4.00000e+00    0.00000e+00    0.00000e+00
        3    1    1    1       0.00000e+00    2.00000e+00    0.00000e+00
        4    0    0    1       4.00000e+00    2.00000e+00    0.00000e+00

 EQUATION NUMBERS

   NODE NUMBER   DEGREES OF FREEDOM
        N           X    Y    Z
        1           0    0    0
        2           1    2    0
        3           0    0    0
        4           3    4    0

 L O A D   C A S E   D A T A

     LOAD CASE NUMBER . . . . . . . =     1
     NUMBER OF CONCENTRATED LOADS . =     1

    NODE       DIRECTION      LOAD
   NUMBER                   MAGNITUDE
      4            2       -1.00000e+02

 E L E M E N T   G R O U P   D A T A


 E L E M E N T   D E F I N I T I O N

 ELEMENT TYPE  . . . . . . . . . . . . .( NPAR(1) ) . . =    3
     EQ.1, TRUSS ELEMENTS
     EQ.2, ELEMENTS CURRENTLY
     EQ.3, T3 ELEMENTS
     EQ.4, NOT AVAILABLE

 NUMBER OF ELEMENTS. . . . . . . . . . .( NPAR(2) ) . . =    2

    T3 ELEMENT INFORMATION:
    ELEMENT     NODE    NODE    NODE    MATERIAL
    NUMBER      I       J       K      SET NUMBER
        1    1        2        4           1
        2    1        4        3           1

   Ele =        Location Matrix
        1    0    0    1    2    3    4
        2    0    0    3    4    0    0

*** _Debug_ *** Column Heights
       0       1       2       3

*** _Debug_ *** Address of Diagonal Element
       1       2       4       7      11

	TOTAL SYSTEM DATA

     NUMBER OF EQUATIONS . . . . . . . . . . . . . .(NEQ) = 4
     NUMBER OF MATRIX ELEMENTS . . . . . . . . . . .(NWK) = 10
     MAXIMUM HALF BANDWIDTH  . . . . . . . . . . . .(MK ) = 4
     MEAN HALF BANDWIDTH . . . . . . . . . . . . . .(MM ) = 2


*** _Debug_ *** Banded stiffness matrix
   6.59341e+01   1.19505e+02  -3.57143e+01   6.59341e+01   1.92308e+01  -3.84615e+01
   1.19505e+02   0.00000e+00  -1.09890e+02   1.64835e+01

*** _Debug_ *** Full stiffness matrix
   6.59341e+01  -3.57143e+01  -3.84615e+01   1.64835e+01
  -3.57143e+01   1.19505e+02   1.92308e+01  -1.09890e+02
  -3.84615e+01   1.92308e+01   6.59341e+01   0.00000e+00
   1.64835e+01  -1.09890e+02   0.00000e+00   1.19505e+02

*** _Debug_ *** Banded stiffness matrix
   6.59341e+01   1.00160e+02  -5.41667e-01   4.34725e+01  -1.60000e-02  -5.83333e-01
   1.21432e+01   1.84024e-01  -1.00800e+00   2.50000e-01

*** _Debug_ *** Full stiffness matrix
   6.59341e+01  -5.41667e-01  -5.83333e-01   2.50000e-01
  -5.41667e-01   1.00160e+02  -1.60000e-02  -1.00800e+00
  -5.83333e-01  -1.60000e-02   4.34725e+01   1.84024e-01
   2.50000e-01  -1.00800e+00   1.84024e-01   1.21432e+01

 LOAD CASE    1


*** _Debug_ *** Displacement vector
  -1.54043e+00  -8.27670e+00   1.51545e+00  -8.23507e+00

 D I S P L A C E M E N T S

  NODE           X-DISPLACEMENT    Y-DISPLACEMENT    Z-DISPLACEMENT
    1               0.00000e+00       0.00000e+00       0.00000e+00
    2              -1.54043e+00      -8.27670e+00       0.00000e+00
    3               0.00000e+00       0.00000e+00       0.00000e+00
    4               1.51545e+00      -8.23507e+00       0.00000e+00

 S T R E S S  C A L C U L A T I O N S  F O R  E L E M E N T  G R O U P    1

  ELEMENT       STRESS_XX       STRESS_YY       STRESS_XY
  NUMBER
    1    -4.16333e+01    -1.04083e+01    -2.08167e+01
    2     4.16333e+01     1.24900e+01    -7.91833e+01


 S O L U T I O N   T I M E   L O G   I N   S E C 

     TIME FOR INPUT PHASE = 0.00000e+00
     TIME FOR CALCULATION OF STIFFNESS MATRIX = 0.00000e+00
     TIME FOR FACTORIZATION AND LOAD CASE SOLUTIONS = 0.00000e+00

     T O T A L   S O L U T I O N   T I M E = 0.00000e+00

