TITLE : T3 Single Element Test
        (23:5:30 on June 7, 2025, Saturday)

C O N T R O L   I N F O R M A T I O N

      NUMBER OF NODAL POINTS . . . . . . . . . . (NUMNP)  =     3
      NUMBER OF ELEMENT GROUPS . . . . . . . . . (NUMEG)  =     1
      NUMBER OF LOAD CASES . . . . . . . . . . . (NLCASE) =     1
      SOLUTION MODE  . . . . . . . . . . . . . . (MODEX)  =     1
         EQ.0, DATA CHECK
         EQ.1, EXECUTION

 N O D A L   P O I N T   D A T A

    NODE       BOUNDARY                         NODAL POINT
   NUMBER  CONDITION  CODES                     COORDINATES
        1    1    1    1       0.00000e+00    0.00000e+00    0.00000e+00
        2    0    1    1       1.00000e+00    0.00000e+00    0.00000e+00
        3    0    0    1       0.00000e+00    1.00000e+00    0.00000e+00

 EQUATION NUMBERS

   NODE NUMBER   DEGREES OF FREEDOM
        N           X    Y    Z
        1           0    0    0
        2           1    0    0
        3           2    3    0

 L O A D   C A S E   D A T A

     LOAD CASE NUMBER . . . . . . . =     1
     NUMBER OF CONCENTRATED LOADS . =     1

    NODE       DIRECTION      LOAD
   NUMBER                   MAGNITUDE
      2            1        1.00000e+02

Reading element group 1
Element Type: 3, NUME: 1, NUMMAT: 1
Reading material set 1
Reading element 1
T3 Element nodes: 1, 2, 3, Material: 1
  Node coordinates: (0.00000e+00,0.00000e+00) (1.00000e+00,0.00000e+00) (0.00000e+00,1.00000e+00) 
Material properties: E=2.10000e+05, nu=3.00000e-01, t=1.00000e+00
Shape function coefficients (after no swap):
  Final coordinates: (0.00000e+00,0.00000e+00), (1.00000e+00,0.00000e+00), (0.00000e+00,1.00000e+00)
  a: [1.00000e+00, 0.00000e+00, 0.00000e+00]
  b: [-1.00000e+00, 1.00000e+00, 0.00000e+00]
  c: [-1.00000e+00, 0.00000e+00, 1.00000e+00]
  Area: 5.00000e-01, sum(a): 1.00000e+00, det: 1.00000e+00
Area calculated: 5.00000e-01
T3 Location Matrix: 0 0 1 0 2 3 
Node boundary codes: Node1:[0,0] Node2:[1,0] Node3:[2,3] 
Location matrix generated successfully.
Successfully read element 1
Successfully read element group 1
 E L E M E N T   G R O U P   D A T A


 E L E M E N T   D E F I N I T I O N

 ELEMENT TYPE  . . . . . . . . . . . . .( NPAR(1) ) . . =    3
     EQ.1, TRUSS ELEMENTS
     EQ.2, ELEMENTS CURRENTLY
     EQ.3, NOT AVAILABLE

 NUMBER OF ELEMENTS. . . . . . . . . . .( NPAR(2) ) . . =    1

    T3 ELEMENT INFORMATION:
    ELEMENT     NODE    NODE    NODE    MATERIAL
    NUMBER      I       J       K      SET NUMBER
        1    1        2        3           1

   Ele =        Location Matrix
T3 Location Matrix: 0 0 1 0 2 3 
Node boundary codes: Node1:[0,0] Node2:[1,0] Node3:[2,3] 
        1    0    0    1    0    2    3

*** _Debug_ *** Column Heights
       0       1       2

*** _Debug_ *** Address of Diagonal Element
       1       2       4       7

	TOTAL SYSTEM DATA

     NUMBER OF EQUATIONS . . . . . . . . . . . . . .(NEQ) = 3
     NUMBER OF MATRIX ELEMENTS . . . . . . . . . . .(NWK) = 6
     MAXIMUM HALF BANDWIDTH  . . . . . . . . . . . .(MK ) = 3
     MEAN HALF BANDWIDTH . . . . . . . . . . . . . .(MM ) = 2


Shape function coefficients (after no swap):
  Final coordinates: (0.00000e+00,0.00000e+00), (1.00000e+00,0.00000e+00), (0.00000e+00,1.00000e+00)
  a: [1.00000e+00, 0.00000e+00, 0.00000e+00]
  b: [-1.00000e+00, 1.00000e+00, 0.00000e+00]
  c: [-1.00000e+00, 0.00000e+00, 1.00000e+00]
  Area: 5.00000e-01, sum(a): 1.00000e+00, det: 1.00000e+00
T3 stiffness matrix calculation:
  Area: 5.00000e-01, Thickness: 1.00000e+00, Volume: 5.00000e-01
  Material: E=2.10000e+05, nu=3.00000e-01, factor=2.30769e+05
  B matrix:
    [-1.000000e+000.000000e+001.000000e+000.000000e+000.000000e+000.000000e+00]
    [0.000000e+00-1.000000e+000.000000e+000.000000e+000.000000e+001.000000e+00]
    [-1.000000e+00-1.000000e+000.000000e+001.000000e+001.000000e+000.000000e+00]
  K[0][0] = 1.557692e+05
  K[0][1] = 7.500000e+04
  K[1][1] = 1.557692e+05
*** _Debug_ *** Banded stiffness matrix
  -1.15385e+05  -4.03846e+04   0.00000e+00  -3.46154e+04  -1.15385e+05   0.00000e+00


*** _Debug_ *** Full stiffness matrix
  -1.15385e+05   0.00000e+00   0.00000e+00
   0.00000e+00  -4.03846e+04  -1.15385e+05
   0.00000e+00  -1.15385e+05  -3.46154e+04

*** _Debug_ *** Banded stiffness matrix
  -1.15385e+05  -4.03846e+04  -0.00000e+00   2.95055e+05   2.85714e+00  -0.00000e+00


*** _Debug_ *** Full stiffness matrix
  -1.15385e+05  -0.00000e+00  -0.00000e+00
  -0.00000e+00  -4.03846e+04   2.85714e+00
  -0.00000e+00   2.85714e+00   2.95055e+05

 LOAD CASE    1


*** _Debug_ *** Displacement vector
  -8.66667e-04  -0.00000e+00   0.00000e+00

 D I S P L A C E M E N T S

  NODE           X-DISPLACEMENT    Y-DISPLACEMENT    Z-DISPLACEMENT
    1               0.00000e+00       0.00000e+00       0.00000e+00
    2              -8.66667e-04       0.00000e+00       0.00000e+00
    3              -0.00000e+00       0.00000e+00       0.00000e+00

 S T R E S S  C A L C U L A T I O N S  F O R  E L E M E N T  G R O U P    1

  ELEMENT       STRESS_XX       STRESS_YY       STRESS_XY
  NUMBER
Shape function coefficients (after no swap):
  Final coordinates: (0.00000e+00,0.00000e+00), (1.00000e+00,0.00000e+00), (0.00000e+00,1.00000e+00)
  a: [1.00000e+00, 0.00000e+00, 0.00000e+00]
  b: [-1.00000e+00, 1.00000e+00, 0.00000e+00]
  c: [-1.00000e+00, 0.00000e+00, 1.00000e+00]
  Area: 5.00000e-01, sum(a): 1.00000e+00, det: 1.00000e+00
T3 Element stress calculation:
  Material: E=2.10000e+05, nu=3.00000e-01, factor=2.30769e+05
  Area: 5.00000e-01, inv_2A=1.00000e+00
  LocationMatrix: [0 0 1 0 2 3 ]
  Displacements: [0.000000e+00 0.000000e+00 -8.666667e-04 0.000000e+00 -0.000000e+00 0.000000e+00 ]
  Strains: [-8.666667e-04, 0.000000e+00, 0.000000e+00]
  Stresses: [-2.000000e+02, -6.000000e+01, 0.000000e+00]
  B matrix verification:
    [-1.000000e+000.000000e+001.000000e+000.000000e+000.000000e+000.000000e+00]
    [0.000000e+00-1.000000e+000.000000e+000.000000e+000.000000e+001.000000e+00]
    [-1.000000e+00-1.000000e+000.000000e+001.000000e+001.000000e+000.000000e+00]
  Element coordinates: (0.000000e+00,0.000000e+00) (1.000000e+00,0.000000e+00) (0.000000e+00,1.000000e+00) 
    1   -2.000000e+02   -6.000000e+01    0.000000e+00


 S O L U T I O N   T I M E   L O G   I N   S E C 

     TIME FOR INPUT PHASE = 0.000000e+00
     TIME FOR CALCULATION OF STIFFNESS MATRIX = 0.000000e+00
     TIME FOR FACTORIZATION AND LOAD CASE SOLUTIONS = 0.000000e+00

     T O T A L   S O L U T I O N   T I M E = 0.000000e+00

