TITLE : T3 Low Modulus Test
        (23:7:12 on June 7, 2025, Saturday)

C O N T R O L   I N F O R M A T I O N

      NUMBER OF NODAL POINTS . . . . . . . . . . (NUMNP)  =     4
      NUMBER OF ELEMENT GROUPS . . . . . . . . . (NUMEG)  =     1
      NUMBER OF LOAD CASES . . . . . . . . . . . (NLCASE) =     1
      SOLUTION MODE  . . . . . . . . . . . . . . (MODEX)  =     1
         EQ.0, DATA CHECK
         EQ.1, EXECUTION

 N O D A L   P O I N T   D A T A

    NODE       BOUNDARY                         NODAL POINT
   NUMBER  CONDITION  CODES                     COORDINATES
        1    1    1    1       0.00000e+00    0.00000e+00    0.00000e+00
        2    0    1    1       1.00000e+00    0.00000e+00    0.00000e+00
        3    0    0    1       1.00000e+00    1.00000e+00    0.00000e+00
        4    1    0    1       0.00000e+00    1.00000e+00    0.00000e+00

 EQUATION NUMBERS

   NODE NUMBER   DEGREES OF FREEDOM
        N           X    Y    Z
        1           0    0    0
        2           1    0    0
        3           2    3    0
        4           0    4    0

 L O A D   C A S E   D A T A

     LOAD CASE NUMBER . . . . . . . =     1
     NUMBER OF CONCENTRATED LOADS . =     2

    NODE       DIRECTION      LOAD
   NUMBER                   MAGNITUDE
      2            1        1.00000e+03
      3            1        1.00000e+03

 E L E M E N T   G R O U P   D A T A


 E L E M E N T   D E F I N I T I O N

 ELEMENT TYPE  . . . . . . . . . . . . .( NPAR(1) ) . . =    3
     EQ.1, TRUSS ELEMENTS
     EQ.2, ELEMENTS CURRENTLY
     EQ.3, NOT AVAILABLE

 NUMBER OF ELEMENTS. . . . . . . . . . .( NPAR(2) ) . . =    2

    T3 ELEMENT INFORMATION:
    ELEMENT     NODE    NODE    NODE    MATERIAL
    NUMBER      I       J       K      SET NUMBER
        1    1        2        3           1
        2    1        3        4           1

   Ele =        Location Matrix
        1    0    0    1    0    2    3
        2    0    0    2    3    0    4

*** _Debug_ *** Column Heights
       0       1       2       2

*** _Debug_ *** Address of Diagonal Element
       1       2       4       7      10

	TOTAL SYSTEM DATA

     NUMBER OF EQUATIONS . . . . . . . . . . . . . .(NEQ) = 4
     NUMBER OF MATRIX ELEMENTS . . . . . . . . . . .(NWK) = 9
     MAXIMUM HALF BANDWIDTH  . . . . . . . . . . . .(MK ) = 3
     MEAN HALF BANDWIDTH . . . . . . . . . . . . . .(MM ) = 2


*** _Debug_ *** Banded stiffness matrix
  -5.49451e+02   0.00000e+00  -1.92308e+02  -3.57143e+02   0.00000e+00  -5.49451e+02
   1.92308e+02   1.64835e+02  -1.92308e+02

*** _Debug_ *** Full stiffness matrix
  -5.49451e+02  -1.92308e+02  -5.49451e+02   0.00000e+00
  -1.92308e+02   0.00000e+00   0.00000e+00  -1.92308e+02
  -5.49451e+02   0.00000e+00  -3.57143e+02   1.64835e+02
   0.00000e+00  -1.92308e+02   1.64835e+02   1.92308e+02

*** _Debug_ *** Banded stiffness matrix
  -5.49451e+02   6.73077e+01   3.50000e-01  -3.57143e+02   2.85714e+00   1.00000e+00
   1.07143e+03  -2.00000e+00  -2.85714e+00

*** _Debug_ *** Full stiffness matrix
  -5.49451e+02   3.50000e-01   1.00000e+00   0.00000e+00
   3.50000e-01   6.73077e+01   2.85714e+00  -2.85714e+00
   1.00000e+00   2.85714e+00  -3.57143e+02  -2.00000e+00
   0.00000e+00  -2.85714e+00  -2.00000e+00   1.07143e+03

 LOAD CASE    1


*** _Debug_ *** Displacement vector
  -1.60000e+00  -2.91429e+00   8.00000e-01  -3.60000e+00

 D I S P L A C E M E N T S

  NODE           X-DISPLACEMENT    Y-DISPLACEMENT    Z-DISPLACEMENT
    1               0.00000e+00       0.00000e+00       0.00000e+00
    2              -1.60000e+00       0.00000e+00       0.00000e+00
    3              -2.91429e+00       8.00000e-01       0.00000e+00
    4               0.00000e+00      -3.60000e+00       0.00000e+00

 S T R E S S  C A L C U L A T I O N S  F O R  E L E M E N T  G R O U P    1

  ELEMENT       STRESS_XX       STRESS_YY       STRESS_XY
  NUMBER
    1    -1.49451e+03     3.51648e+02    -5.05495e+02
    2    -4.38932e+03    -4.91680e+03     1.69231e+03


 S O L U T I O N   T I M E   L O G   I N   S E C 

     TIME FOR INPUT PHASE = 0.00000e+00
     TIME FOR CALCULATION OF STIFFNESS MATRIX = 0.00000e+00
     TIME FOR FACTORIZATION AND LOAD CASE SOLUTIONS = 0.00000e+00

     T O T A L   S O L U T I O N   T I M E = 0.00000e+00

