TITLE : T3 L-Shape Domain Test
        (23:7:12 on June 7, 2025, Saturday)

C O N T R O L   I N F O R M A T I O N

      NUMBER OF NODAL POINTS . . . . . . . . . . (NUMNP)  =     8
      NUMBER OF ELEMENT GROUPS . . . . . . . . . (NUMEG)  =     1
      NUMBER OF LOAD CASES . . . . . . . . . . . (NLCASE) =     1
      SOLUTION MODE  . . . . . . . . . . . . . . (MODEX)  =     1
         EQ.0, DATA CHECK
         EQ.1, EXECUTION

 N O D A L   P O I N T   D A T A

    NODE       BOUNDARY                         NODAL POINT
   NUMBER  CONDITION  CODES                     COORDINATES
        1    1    1    1       0.00000e+00    0.00000e+00    0.00000e+00
        2    1    1    1       0.00000e+00    1.00000e+00    0.00000e+00
        3    1    1    1       0.00000e+00    2.00000e+00    0.00000e+00
        4    0    0    1       1.00000e+00    0.00000e+00    0.00000e+00
        5    0    0    1       1.00000e+00    1.00000e+00    0.00000e+00
        6    0    0    1       1.00000e+00    2.00000e+00    0.00000e+00
        7    0    0    1       2.00000e+00    0.00000e+00    0.00000e+00
        8    0    0    1       2.00000e+00    1.00000e+00    0.00000e+00

 EQUATION NUMBERS

   NODE NUMBER   DEGREES OF FREEDOM
        N           X    Y    Z
        1           0    0    0
        2           0    0    0
        3           0    0    0
        4           1    2    0
        5           3    4    0
        6           5    6    0
        7           7    8    0
        8           9   10    0

 L O A D   C A S E   D A T A

     LOAD CASE NUMBER . . . . . . . =     1
     NUMBER OF CONCENTRATED LOADS . =     2

    NODE       DIRECTION      LOAD
   NUMBER                   MAGNITUDE
      7            1        5.00000e+02
      8            1        5.00000e+02

 E L E M E N T   G R O U P   D A T A


 E L E M E N T   D E F I N I T I O N

 ELEMENT TYPE  . . . . . . . . . . . . .( NPAR(1) ) . . =    3
     EQ.1, TRUSS ELEMENTS
     EQ.2, ELEMENTS CURRENTLY
     EQ.3, NOT AVAILABLE

 NUMBER OF ELEMENTS. . . . . . . . . . .( NPAR(2) ) . . =    6

    T3 ELEMENT INFORMATION:
    ELEMENT     NODE    NODE    NODE    MATERIAL
    NUMBER      I       J       K      SET NUMBER
        1    1        4        5           1
        2    1        5        2           1
        3    2        5        6           1
        4    2        6        3           1
        5    4        7        8           1
        6    4        8        5           1

   Ele =        Location Matrix
        1    0    0    1    2    3    4
        2    0    0    3    4    0    0
        3    0    0    3    4    5    6
        4    0    0    5    6    0    0
        5    1    2    7    8    9   10
        6    1    2    9   10    3    4

*** _Debug_ *** Column Heights
       0       1       2       3       2       3       6       7       8       9

*** _Debug_ *** Address of Diagonal Element
       1       2       4       7      11      14      18      25      33      42      52

	TOTAL SYSTEM DATA

     NUMBER OF EQUATIONS . . . . . . . . . . . . . .(NEQ) = 10
     NUMBER OF MATRIX ELEMENTS . . . . . . . . . . .(NWK) = 51
     MAXIMUM HALF BANDWIDTH  . . . . . . . . . . . .(MK ) = 10
     MEAN HALF BANDWIDTH . . . . . . . . . . . . . .(MM ) = 5


*** _Debug_ *** Banded stiffness matrix
   4.03846e+04   3.46154e+04   1.15385e+05  -1.55769e+05   0.00000e+00   1.15385e+05
   0.00000e+00  -1.55769e+05  -4.03846e+04   4.03846e+04   0.00000e+00  -4.03846e+04
  -4.03846e+04  -7.50000e+04   0.00000e+00   3.46154e+04  -1.15385e+05  -1.15385e+05
   0.00000e+00   0.00000e+00   0.00000e+00   0.00000e+00   4.03846e+04   1.55769e+05
   3.46154e+04  -4.03846e+04   0.00000e+00   0.00000e+00   0.00000e+00   0.00000e+00
  -7.50000e+04   1.55769e+05   0.00000e+00  -4.03846e+04  -4.03846e+04   0.00000e+00
   0.00000e+00  -4.03846e+04  -1.15385e+05   5.76923e+03   1.55769e+05  -7.50000e+04
   0.00000e+00   3.46154e+04  -1.15385e+05   0.00000e+00   0.00000e+00   3.46154e+04
   3.46154e+04   0.00000e+00   1.55769e+05

*** _Debug_ *** Full stiffness matrix
   4.03846e+04   1.15385e+05   1.15385e+05   4.03846e+04   0.00000e+00   0.00000e+00   1.55769e+05   1.55769e+05   1.55769e+05   1.55769e+05
   1.15385e+05   3.46154e+04   0.00000e+00  -4.03846e+04   0.00000e+00   0.00000e+00   4.03846e+04  -7.50000e+04   5.76923e+03   0.00000e+00
   1.15385e+05   0.00000e+00  -1.55769e+05  -1.55769e+05  -4.03846e+04  -1.15385e+05   0.00000e+00   0.00000e+00  -1.15385e+05   3.46154e+04
   4.03846e+04  -4.03846e+04  -1.55769e+05   0.00000e+00  -4.03846e+04   3.46154e+04   0.00000e+00   0.00000e+00  -4.03846e+04   3.46154e+04
   0.00000e+00   0.00000e+00  -4.03846e+04  -4.03846e+04   0.00000e+00   0.00000e+00   0.00000e+00   0.00000e+00   0.00000e+00   0.00000e+00
   0.00000e+00   0.00000e+00  -1.15385e+05   3.46154e+04   0.00000e+00  -7.50000e+04   0.00000e+00   0.00000e+00   0.00000e+00   0.00000e+00
   1.55769e+05   4.03846e+04   0.00000e+00   0.00000e+00   0.00000e+00   0.00000e+00  -1.15385e+05  -4.03846e+04  -4.03846e+04  -1.15385e+05
   1.55769e+05  -7.50000e+04   0.00000e+00   0.00000e+00   0.00000e+00   0.00000e+00  -4.03846e+04   3.46154e+04  -4.03846e+04   3.46154e+04
   1.55769e+05   5.76923e+03  -1.15385e+05  -4.03846e+04   0.00000e+00   0.00000e+00  -4.03846e+04  -4.03846e+04   0.00000e+00   0.00000e+00
   1.55769e+05   0.00000e+00   3.46154e+04   3.46154e+04   0.00000e+00   0.00000e+00  -1.15385e+05   3.46154e+04   0.00000e+00  -7.50000e+04

*** _Debug_ *** Banded stiffness matrix
   4.03846e+04  -2.95055e+05   2.85714e+00  -1.17093e+05   1.11732e+00   2.85714e+00
   1.22389e+05   8.29342e-01   5.27933e-01   1.00000e+00   1.35403e+04  -5.63121e-02
   3.44894e-01  -2.64110e+05   3.48097e+00   1.06471e+00   9.85412e-01  -1.67354e+05
   2.42394e-01   3.56030e-02   4.24786e-01  -6.05560e-02   1.37151e+00   3.85714e+00
   3.82560e+05  -4.43005e-01  -8.22339e-02  -3.43956e+00   4.88968e-02  -1.16157e+00
   1.76257e+00   3.85714e+00   8.21924e+03   2.99516e-01   3.07707e-01   5.03019e-01
   2.16211e+00   7.63930e-01   5.94550e-01   1.48883e+00   3.85714e+00  -1.81268e+05
   4.54343e+00   4.47033e-01   6.51801e-01   1.28774e-01  -2.03785e+00   3.41493e-01
  -7.41536e-01   1.50838e+00   3.85714e+00

*** _Debug_ *** Full stiffness matrix
   4.03846e+04   2.85714e+00   2.85714e+00   1.00000e+00   0.00000e+00   0.00000e+00   3.85714e+00   3.85714e+00   3.85714e+00   3.85714e+00
   2.85714e+00  -2.95055e+05   1.11732e+00   5.27933e-01   0.00000e+00   0.00000e+00   1.37151e+00   1.76257e+00   1.48883e+00   1.50838e+00
   2.85714e+00   1.11732e+00  -1.17093e+05   8.29342e-01   3.44894e-01   9.85412e-01  -6.05560e-02  -1.16157e+00   5.94550e-01  -7.41536e-01
   1.00000e+00   5.27933e-01   8.29342e-01   1.22389e+05  -5.63121e-02   1.06471e+00   4.24786e-01   4.88968e-02   7.63930e-01   3.41493e-01
   0.00000e+00   0.00000e+00   3.44894e-01  -5.63121e-02   1.35403e+04   3.48097e+00   3.56030e-02  -3.43956e+00   2.16211e+00  -2.03785e+00
   0.00000e+00   0.00000e+00   9.85412e-01   1.06471e+00   3.48097e+00  -2.64110e+05   2.42394e-01  -8.22339e-02   5.03019e-01   1.28774e-01
   3.85714e+00   1.37151e+00  -6.05560e-02   4.24786e-01   3.56030e-02   2.42394e-01  -1.67354e+05  -4.43005e-01   3.07707e-01   6.51801e-01
   3.85714e+00   1.76257e+00  -1.16157e+00   4.88968e-02  -3.43956e+00  -8.22339e-02  -4.43005e-01   3.82560e+05   2.99516e-01   4.47033e-01
   3.85714e+00   1.48883e+00   5.94550e-01   7.63930e-01   2.16211e+00   5.03019e-01   3.07707e-01   2.99516e-01   8.21924e+03   4.54343e+00
   3.85714e+00   1.50838e+00  -7.41536e-01   3.41493e-01  -2.03785e+00   1.28774e-01   6.51801e-01   4.47033e-01   4.54343e+00  -1.81268e+05

 LOAD CASE    1


*** _Debug_ *** Displacement vector
  -4.07521e-04   1.12856e-02  -2.32705e-03   2.32705e-03   1.77645e-02
   4.65410e-03  -6.95238e-03  -1.06654e-03  -8.47200e-03   9.35733e-03

 D I S P L A C E M E N T S

  NODE           X-DISPLACEMENT    Y-DISPLACEMENT    Z-DISPLACEMENT
    1               0.00000e+00       0.00000e+00       0.00000e+00
    2               0.00000e+00       0.00000e+00       0.00000e+00
    3               0.00000e+00       0.00000e+00       0.00000e+00
    4              -4.07521e-04       1.12856e-02       0.00000e+00
    5              -2.32705e-03       2.32705e-03       0.00000e+00
    6               1.77645e-02       4.65410e-03       0.00000e+00
    7              -6.95238e-03      -1.06654e-03       0.00000e+00
    8              -8.47200e-03       9.35733e-03       0.00000e+00

 S T R E S S  C A L C U L A T I O N S  F O R  E L E M E N T  G R O U P    1

  ELEMENT       STRESS_XX       STRESS_YY       STRESS_XY
  NUMBER
    1    -7.14248e+02    -2.09556e+03     7.56487e+02
    2    -5.37012e+02    -1.61104e+02     1.87954e+02
    3    -3.75908e+02     3.75908e+02     1.81073e+03
    4     4.09950e+03     1.22985e+03     3.75908e+02
    5    -7.88700e+02     1.95240e+03    -1.12041e+03
    6    -2.03827e+03    -2.49277e+03     4.12791e+02


 S O L U T I O N   T I M E   L O G   I N   S E C 

     TIME FOR INPUT PHASE = 1.56250e-02
     TIME FOR CALCULATION OF STIFFNESS MATRIX = 0.00000e+00
     TIME FOR FACTORIZATION AND LOAD CASE SOLUTIONS = 0.00000e+00

     T O T A L   S O L U T I O N   T I M E = 1.56250e-02

