TITLE : T3 Patch Test - Constant Strain
        (23:7:11 on June 7, 2025, Saturday)

C O N T R O L   I N F O R M A T I O N

      NUMBER OF NODAL POINTS . . . . . . . . . . (NUMNP)  =     4
      NUMBER OF ELEMENT GROUPS . . . . . . . . . (NUMEG)  =     1
      NUMBER OF LOAD CASES . . . . . . . . . . . (NLCASE) =     1
      SOLUTION MODE  . . . . . . . . . . . . . . (MODEX)  =     1
         EQ.0, DATA CHECK
         EQ.1, EXECUTION

 N O D A L   P O I N T   D A T A

    NODE       BOUNDARY                         NODAL POINT
   NUMBER  CONDITION  CODES                     COORDINATES
        1    1    1    1       0.00000e+00    0.00000e+00    0.00000e+00
        2    0    1    1       2.00000e+00    0.00000e+00    0.00000e+00
        3    0    0    1       2.00000e+00    2.00000e+00    0.00000e+00
        4    1    0    1       0.00000e+00    2.00000e+00    0.00000e+00

 EQUATION NUMBERS

   NODE NUMBER   DEGREES OF FREEDOM
        N           X    Y    Z
        1           0    0    0
        2           1    0    0
        3           2    3    0
        4           0    4    0

 L O A D   C A S E   D A T A

     LOAD CASE NUMBER . . . . . . . =     1
     NUMBER OF CONCENTRATED LOADS . =     4

    NODE       DIRECTION      LOAD
   NUMBER                   MAGNITUDE
      2            1        1.00000e+03
      2            2        0.00000e+00
      3            1        1.00000e+03
      3            2        0.00000e+00

 E L E M E N T   G R O U P   D A T A


 E L E M E N T   D E F I N I T I O N

 ELEMENT TYPE  . . . . . . . . . . . . .( NPAR(1) ) . . =    3
     EQ.1, TRUSS ELEMENTS
     EQ.2, ELEMENTS CURRENTLY
     EQ.3, NOT AVAILABLE

 NUMBER OF ELEMENTS. . . . . . . . . . .( NPAR(2) ) . . =    2

    T3 ELEMENT INFORMATION:
    ELEMENT     NODE    NODE    NODE    MATERIAL
    NUMBER      I       J       K      SET NUMBER
        1    1        2        3           1
        2    1        3        4           1

   Ele =        Location Matrix
        1    0    0    1    0    2    3
        2    0    0    2    3    0    4

*** _Debug_ *** Column Heights
       0       1       2       2

*** _Debug_ *** Address of Diagonal Element
       1       2       4       7      10

	TOTAL SYSTEM DATA

     NUMBER OF EQUATIONS . . . . . . . . . . . . . .(NEQ) = 4
     NUMBER OF MATRIX ELEMENTS . . . . . . . . . . .(NWK) = 9
     MAXIMUM HALF BANDWIDTH  . . . . . . . . . . . .(MK ) = 3
     MEAN HALF BANDWIDTH . . . . . . . . . . . . . .(MM ) = 2


*** _Debug_ *** Banded stiffness matrix
  -1.15385e+05   0.00000e+00  -4.03846e+04  -7.50000e+04   0.00000e+00  -1.15385e+05
   4.03846e+04   3.46154e+04  -4.03846e+04

*** _Debug_ *** Full stiffness matrix
  -1.15385e+05  -4.03846e+04  -1.15385e+05   0.00000e+00
  -4.03846e+04   0.00000e+00   0.00000e+00  -4.03846e+04
  -1.15385e+05   0.00000e+00  -7.50000e+04   3.46154e+04
   0.00000e+00  -4.03846e+04   3.46154e+04   4.03846e+04

*** _Debug_ *** Banded stiffness matrix
  -1.15385e+05   1.41346e+04   3.50000e-01  -7.50000e+04   2.85714e+00   1.00000e+00
   2.25000e+05  -2.00000e+00  -2.85714e+00

*** _Debug_ *** Full stiffness matrix
  -1.15385e+05   3.50000e-01   1.00000e+00   0.00000e+00
   3.50000e-01   1.41346e+04   2.85714e+00  -2.85714e+00
   1.00000e+00   2.85714e+00  -7.50000e+04  -2.00000e+00
   0.00000e+00  -2.85714e+00  -2.00000e+00   2.25000e+05

 LOAD CASE    1


*** _Debug_ *** Displacement vector
  -7.61905e-03  -1.38776e-02   3.80952e-03  -1.71429e-02

 D I S P L A C E M E N T S

  NODE           X-DISPLACEMENT    Y-DISPLACEMENT    Z-DISPLACEMENT
    1               0.00000e+00       0.00000e+00       0.00000e+00
    2              -7.61905e-03       0.00000e+00       0.00000e+00
    3              -1.38776e-02       3.80952e-03       0.00000e+00
    4               0.00000e+00      -1.71429e-02       0.00000e+00

 S T R E S S  C A L C U L A T I O N S  F O R  E L E M E N T  G R O U P    1

  ELEMENT       STRESS_XX       STRESS_YY       STRESS_XY
  NUMBER
    1    -7.47253e+02     1.75824e+02    -2.52747e+02
    2    -2.19466e+03    -2.45840e+03     8.46154e+02


 S O L U T I O N   T I M E   L O G   I N   S E C 

     TIME FOR INPUT PHASE = 0.00000e+00
     TIME FOR CALCULATION OF STIFFNESS MATRIX = 0.00000e+00
     TIME FOR FACTORIZATION AND LOAD CASE SOLUTIONS = 0.00000e+00

     T O T A L   S O L U T I O N   T I M E = 0.00000e+00

