TITLE : T3 Simplified Standard Patch Test
        (18:9:26 on June 10, 2025, Tuesday)

C O N T R O L   I N F O R M A T I O N

      NUMBER OF NODAL POINTS . . . . . . . . . . (NUMNP)  =     7
      NUMBER OF ELEMENT GROUPS . . . . . . . . . (NUMEG)  =     1
      NUMBER OF LOAD CASES . . . . . . . . . . . (NLCASE) =     1
      SOLUTION MODE  . . . . . . . . . . . . . . (MODEX)  =     1
         EQ.0, DATA CHECK
         EQ.1, EXECUTION

 N O D A L   P O I N T   D A T A

    NODE       BOUNDARY                         NODAL POINT
   NUMBER  CONDITION  CODES                     COORDINATES
        1    1    1    1       0.00000e+00    0.00000e+00    0.00000e+00
        2    0    1    1       2.00000e+00    0.00000e+00    0.00000e+00
        3    0    0    1       2.50000e+00    1.50000e+00    0.00000e+00
        4    0    0    1       1.30000e+00    1.80000e+00    0.00000e+00
        5    1    0    1       0.00000e+00    1.50000e+00    0.00000e+00
        6    0    0    1       1.00000e+00    7.00000e-01    0.00000e+00
        7    0    0    1       1.80000e+00    9.00000e-01    0.00000e+00

 EQUATION NUMBERS

   NODE NUMBER   DEGREES OF FREEDOM
        N           X    Y    Z
        1           0    0    0
        2           1    0    0
        3           2    3    0
        4           4    5    0
        5           0    6    0
        6           7    8    0
        7           9   10    0

 L O A D   C A S E   D A T A

     LOAD CASE NUMBER . . . . . . . =     1
     NUMBER OF CONCENTRATED LOADS . =     8

    NODE       DIRECTION      LOAD
   NUMBER                   MAGNITUDE
      2            1        2.00000e+02
      3            1        2.50000e+02
      3            2        1.50000e+02
      4            1        1.30000e+02
      4            2        1.80000e+02
      6            1        1.00000e+02
      6            2        7.00000e+01
      7            1        1.80000e+02

 E L E M E N T   G R O U P   D A T A


 E L E M E N T   D E F I N I T I O N

 ELEMENT TYPE  . . . . . . . . . . . . .( NPAR(1) ) . . =    3
     EQ.1, TRUSS ELEMENTS
     EQ.2, ELEMENTS CURRENTLY
     EQ.3, T3 ELEMENTS
     EQ.4, NOT AVAILABLE

 NUMBER OF ELEMENTS. . . . . . . . . . .( NPAR(2) ) . . =    5

    T3 ELEMENT INFORMATION:
    ELEMENT     NODE    NODE    NODE    MATERIAL
    NUMBER      I       J       K      SET NUMBER
        1    1        6        5           1
        2    6        2        7           1
        3    2        3        7           1
        4    7        3        4           1
        5    6        7        4           1

   Ele =        Location Matrix
        1    0    0    7    8    0    6
        2    7    8    1    0    9   10
        3    1    0    2    3    9   10
        4    9   10    2    3    4    5
        5    7    8    9   10    4    5

*** _Debug_ *** Column Heights
       0       1       2       2       3       0       6       7       8       9

*** _Debug_ *** Address of Diagonal Element
       1       2       4       7      10      14      15      22      30      39      49

	TOTAL SYSTEM DATA

     NUMBER OF EQUATIONS . . . . . . . . . . . . . .(NEQ) = 10
     NUMBER OF MATRIX ELEMENTS . . . . . . . . . . .(NWK) = 48
     MAXIMUM HALF BANDWIDTH  . . . . . . . . . . . .(MK ) = 10
     MEAN HALF BANDWIDTH . . . . . . . . . . . . . .(MM ) = 4


*** _Debug_ *** Banded stiffness matrix
   1.21850e+03   2.38122e+03   7.55385e+02   1.15960e+03   5.42903e+02  -2.83846e+02
   1.03091e+03   1.61911e+02  -5.17990e+02   1.68453e+03  -4.85051e+02   1.99752e+02
   1.04218e+02   9.01154e+02   4.24468e+03   3.46154e+02  -2.54690e+02   5.62852e+01
   0.00000e+00   0.00000e+00  -1.88259e+02   1.84762e+03   5.89217e+02  -2.82692e+02
  -4.74203e+02  -3.12383e+02   0.00000e+00   0.00000e+00   3.64372e+02   7.35538e+03
  -6.41207e+02  -2.38194e+03   0.00000e+00   6.35523e+02  -5.69207e+02  -4.20968e+02
  -2.61861e+03  -1.78563e+03   5.92299e+03  -7.07172e+01  -9.14912e+02  -6.41207e+02
   0.00000e+00  -1.41008e+03   6.35523e+02  -1.43474e+03  -4.20968e+02   4.97368e+02


*** _Debug_ *** Full stiffness matrix
   1.21850e+03   7.55385e+02  -2.83846e+02   0.00000e+00   0.00000e+00   0.00000e+00  -1.88259e+02   3.64372e+02  -1.78563e+03   4.97368e+02
   7.55385e+02   2.38122e+03   5.42903e+02  -5.17990e+02   1.04218e+02   0.00000e+00   0.00000e+00   0.00000e+00  -2.61861e+03  -4.20968e+02
  -2.83846e+02   5.42903e+02   1.15960e+03   1.61911e+02   1.99752e+02   0.00000e+00   0.00000e+00   0.00000e+00  -4.20968e+02  -1.43474e+03
   0.00000e+00  -5.17990e+02   1.61911e+02   1.03091e+03  -4.85051e+02   0.00000e+00   5.62852e+01  -3.12383e+02  -5.69207e+02   6.35523e+02
   0.00000e+00   1.04218e+02   1.99752e+02  -4.85051e+02   1.68453e+03   0.00000e+00  -2.54690e+02  -4.74203e+02   6.35523e+02  -1.41008e+03
   0.00000e+00   0.00000e+00   0.00000e+00   0.00000e+00   0.00000e+00   9.01154e+02   3.46154e+02  -2.82692e+02   0.00000e+00   0.00000e+00
  -1.88259e+02   0.00000e+00   0.00000e+00   5.62852e+01  -2.54690e+02   3.46154e+02   4.24468e+03   5.89217e+02  -2.38194e+03  -6.41207e+02
   3.64372e+02   0.00000e+00   0.00000e+00  -3.12383e+02  -4.74203e+02  -2.82692e+02   5.89217e+02   1.84762e+03  -6.41207e+02  -9.14912e+02
  -1.78563e+03  -2.61861e+03  -4.20968e+02  -5.69207e+02   6.35523e+02   0.00000e+00  -2.38194e+03  -6.41207e+02   7.35538e+03  -7.07172e+01
   4.97368e+02  -4.20968e+02  -1.43474e+03   6.35523e+02  -1.41008e+03   0.00000e+00  -6.41207e+02  -9.14912e+02  -7.07172e+01   5.92299e+03

*** _Debug_ *** Banded stiffness matrix
   1.21850e+03   1.91293e+03   6.19929e-01   8.23336e+02   3.75794e-01  -2.32947e-01
   7.36227e+02   4.33077e-01  -2.70783e-01   1.27119e+03  -7.14966e-01   1.95045e-01
   5.44810e-02   9.01154e+02   4.02600e+03   3.84123e-01  -1.21104e-01   1.70971e-01
  -1.06533e-01   6.10097e-02  -1.54500e-01   6.49860e+02   1.89704e-01  -3.13700e-01
  -6.40855e-01  -6.07245e-01   2.06192e-01  -1.18083e-01   2.99033e-01   9.05456e+02
  -2.99327e-01  -6.03129e-01   0.00000e+00   1.21104e-01  -1.17097e+00  -3.26545e-01
  -7.90226e-01  -1.46543e+00   2.10544e+03   1.82308e-01  -8.80705e-01  -2.10531e-01
   0.00000e+00  -4.16827e-01   1.20958e+00  -1.26900e+00  -3.81248e-01   4.08180e-01


*** _Debug_ *** Full stiffness matrix
   1.21850e+03   6.19929e-01  -2.32947e-01   0.00000e+00   0.00000e+00   0.00000e+00  -1.54500e-01   2.99033e-01  -1.46543e+00   4.08180e-01
   6.19929e-01   1.91293e+03   3.75794e-01  -2.70783e-01   5.44810e-02   0.00000e+00   6.10097e-02  -1.18083e-01  -7.90226e-01  -3.81248e-01
  -2.32947e-01   3.75794e-01   8.23336e+02   4.33077e-01   1.95045e-01   0.00000e+00  -1.06533e-01   2.06192e-01  -3.26545e-01  -1.26900e+00
   0.00000e+00  -2.70783e-01   4.33077e-01   7.36227e+02  -7.14966e-01   0.00000e+00   1.70971e-01  -6.07245e-01  -1.17097e+00   1.20958e+00
   0.00000e+00   5.44810e-02   1.95045e-01  -7.14966e-01   1.27119e+03   0.00000e+00  -1.21104e-01  -6.40855e-01   1.21104e-01  -4.16827e-01
   0.00000e+00   0.00000e+00   0.00000e+00   0.00000e+00   0.00000e+00   9.01154e+02   3.84123e-01  -3.13700e-01   0.00000e+00   0.00000e+00
  -1.54500e-01   6.10097e-02  -1.06533e-01   1.70971e-01  -1.21104e-01   3.84123e-01   4.02600e+03   1.89704e-01  -6.03129e-01  -2.10531e-01
   2.99033e-01  -1.18083e-01   2.06192e-01  -6.07245e-01  -6.40855e-01  -3.13700e-01   1.89704e-01   6.49860e+02  -2.99327e-01  -8.80705e-01
  -1.46543e+00  -7.90226e-01  -3.26545e-01  -1.17097e+00   1.21104e-01   0.00000e+00  -6.03129e-01  -2.99327e-01   9.05456e+02   1.82308e-01
   4.08180e-01  -3.81248e-01  -1.26900e+00   1.20958e+00  -4.16827e-01   0.00000e+00  -2.10531e-01  -8.80705e-01   1.82308e-01   2.10544e+03

 LOAD CASE    1


*** _Debug_ *** Displacement vector
   4.02222e-01   1.45916e+00  -3.72957e-01   1.78596e+00   5.25437e-01
  -5.71429e-03   4.98032e-01   5.91619e-01   9.26585e-01   6.94158e-02

 D I S P L A C E M E N T S

  NODE           X-DISPLACEMENT    Y-DISPLACEMENT    Z-DISPLACEMENT
    1               0.00000e+00       0.00000e+00       0.00000e+00
    2               4.02222e-01       0.00000e+00       0.00000e+00
    3               1.45916e+00      -3.72957e-01       0.00000e+00
    4               1.78596e+00       5.25437e-01       0.00000e+00
    5               0.00000e+00      -5.71429e-03       0.00000e+00
    6               4.98032e-01       5.91619e-01       0.00000e+00
    7               9.26585e-01       6.94158e-02       0.00000e+00

 S T R E S S  C A L C U L A T I O N S  F O R  E L E M E N T  G R O U P    1

  ELEMENT       STRESS_XX       STRESS_YY       STRESS_XY
  NUMBER
    1     1.14667e+05     3.36000e+04     4.80000e+04
    2     8.08156e+04     1.07306e+04     2.26740e+03
    3     4.69961e+04     2.93145e+03     3.63838e+03
    4    -1.71085e+03     2.16222e+04     1.70312e+04
    5     6.89319e+04     4.72408e+04     3.35476e+04


 S O L U T I O N   T I M E   L O G   I N   S E C 

     TIME FOR INPUT PHASE = 1.56250e-02
     TIME FOR CALCULATION OF STIFFNESS MATRIX = 0.00000e+00
     TIME FOR FACTORIZATION AND LOAD CASE SOLUTIONS = 0.00000e+00

     T O T A L   S O L U T I O N   T I M E = 1.56250e-02

