TITLE : T3 Patch Test - Pure Shear
        (15:50:32 on June 10, 2025, Tuesday)

C O N T R O L   I N F O R M A T I O N

      NUMBER OF NODAL POINTS . . . . . . . . . . (NUMNP)  =     4
      NUMBER OF ELEMENT GROUPS . . . . . . . . . (NUMEG)  =     1
      NUMBER OF LOAD CASES . . . . . . . . . . . (NLCASE) =     1
      SOLUTION MODE  . . . . . . . . . . . . . . (MODEX)  =     1
         EQ.0, DATA CHECK
         EQ.1, EXECUTION

 N O D A L   P O I N T   D A T A

    NODE       BOUNDARY                         NODAL POINT
   NUMBER  CONDITION  CODES                     COORDINATES
        1    1    1    1       0.00000e+00    0.00000e+00    0.00000e+00
        2    1    0    1       1.00000e+00    0.00000e+00    0.00000e+00
        3    0    0    1       1.00000e+00    1.00000e+00    0.00000e+00
        4    0    1    1       0.00000e+00    1.00000e+00    0.00000e+00

 EQUATION NUMBERS

   NODE NUMBER   DEGREES OF FREEDOM
        N           X    Y    Z
        1           0    0    0
        2           0    1    0
        3           2    3    0
        4           4    0    0

 L O A D   C A S E   D A T A

     LOAD CASE NUMBER . . . . . . . =     1
     NUMBER OF CONCENTRATED LOADS . =     2

    NODE       DIRECTION      LOAD
   NUMBER                   MAGNITUDE
      3            1        1.00000e+02
      4            2        1.00000e+02

 E L E M E N T   G R O U P   D A T A


 E L E M E N T   D E F I N I T I O N

 ELEMENT TYPE  . . . . . . . . . . . . .( NPAR(1) ) . . =    3
     EQ.1, TRUSS ELEMENTS
     EQ.2, ELEMENTS CURRENTLY
     EQ.3, T3 ELEMENTS
     EQ.4, NOT AVAILABLE

 NUMBER OF ELEMENTS. . . . . . . . . . .( NPAR(2) ) . . =    2

    T3 ELEMENT INFORMATION:
    ELEMENT     NODE    NODE    NODE    MATERIAL
    NUMBER      I       J       K      SET NUMBER
        1    1        2        3           1
        2    1        3        4           1

   Ele =        Location Matrix
        1    0    0    0    1    2    3
        2    0    0    2    3    4    0

*** _Debug_ *** Column Heights
       0       1       2       2

*** _Debug_ *** Address of Diagonal Element
       1       2       4       7      10

	TOTAL SYSTEM DATA

     NUMBER OF EQUATIONS . . . . . . . . . . . . . .(NEQ) = 4
     NUMBER OF MATRIX ELEMENTS . . . . . . . . . . .(NWK) = 9
     MAXIMUM HALF BANDWIDTH  . . . . . . . . . . . .(MK ) = 3
     MEAN HALF BANDWIDTH . . . . . . . . . . . . . .(MM ) = 2


*** _Debug_ *** Banded stiffness matrix
   1.55769e+03   1.55769e+03   4.03846e+02   1.55769e+03   0.00000e+00  -1.15385e+03
   1.55769e+03   4.03846e+02  -1.15385e+03

*** _Debug_ *** Full stiffness matrix
   1.55769e+03   4.03846e+02  -1.15385e+03   0.00000e+00
   4.03846e+02   1.55769e+03   0.00000e+00  -1.15385e+03
  -1.15385e+03   0.00000e+00   1.55769e+03   4.03846e+02
   0.00000e+00  -1.15385e+03   4.03846e+02   1.55769e+03

*** _Debug_ *** Banded stiffness matrix
   1.55769e+03   1.45299e+03   2.59259e-01   6.41403e+02   2.05882e-01  -7.40741e-01
   3.41061e-13   1.00000e+00  -7.94118e-01

*** _Debug_ *** Full stiffness matrix
   1.55769e+03   2.59259e-01  -7.40741e-01   0.00000e+00
   2.59259e-01   1.45299e+03   2.05882e-01  -7.94118e-01
  -7.40741e-01   2.05882e-01   6.41403e+02   1.00000e+00
   0.00000e+00  -7.94118e-01   1.00000e+00   3.41061e-13

 LOAD CASE    1


*** _Debug_ *** Displacement vector
  -2.93203e+14   2.93203e+14  -2.93203e+14   2.93203e+14

 D I S P L A C E M E N T S

  NODE           X-DISPLACEMENT    Y-DISPLACEMENT    Z-DISPLACEMENT
    1               0.00000e+00       0.00000e+00       0.00000e+00
    2               0.00000e+00      -2.93203e+14       0.00000e+00
    3               2.93203e+14      -2.93203e+14       0.00000e+00
    4               2.93203e+14       0.00000e+00       0.00000e+00

 S T R E S S  C A L C U L A T I O N S  F O R  E L E M E N T  G R O U P    1

  ELEMENT       STRESS_XX       STRESS_YY       STRESS_XY
  NUMBER
    1     0.00000e+00     0.00000e+00     1.00962e+04
    2     1.44231e+04     4.32692e+03     5.04808e+03


 S O L U T I O N   T I M E   L O G   I N   S E C 

     TIME FOR INPUT PHASE = 1.56250e-02
     TIME FOR CALCULATION OF STIFFNESS MATRIX = 0.00000e+00
     TIME FOR FACTORIZATION AND LOAD CASE SOLUTIONS = 0.00000e+00

     T O T A L   S O L U T I O N   T I M E = 1.56250e-02

