TITLE : T3 Standard Test - Proper Orientation
        (14:58:58 on June 10, 2025, Tuesday)

C O N T R O L   I N F O R M A T I O N

      NUMBER OF NODAL POINTS . . . . . . . . . . (NUMNP)  =     3
      NUMBER OF ELEMENT GROUPS . . . . . . . . . (NUMEG)  =     1
      NUMBER OF LOAD CASES . . . . . . . . . . . (NLCASE) =     1
      SOLUTION MODE  . . . . . . . . . . . . . . (MODEX)  =     1
         EQ.0, DATA CHECK
         EQ.1, EXECUTION

 N O D A L   P O I N T   D A T A

    NODE       BOUNDARY                         NODAL POINT
   NUMBER  CONDITION  CODES                     COORDINATES
        1    1    1    1       0.00000e+00    0.00000e+00    0.00000e+00
        2    0    1    1       1.00000e+00    0.00000e+00    0.00000e+00
        3    0    0    1       5.00000e-01    8.66000e-01    0.00000e+00

 EQUATION NUMBERS

   NODE NUMBER   DEGREES OF FREEDOM
        N           X    Y    Z
        1           0    0    0
        2           1    0    0
        3           2    3    0

 L O A D   C A S E   D A T A

     LOAD CASE NUMBER . . . . . . . =     1
     NUMBER OF CONCENTRATED LOADS . =     1

    NODE       DIRECTION      LOAD
   NUMBER                   MAGNITUDE
      2            1        1.00000e+03

 E L E M E N T   G R O U P   D A T A


 E L E M E N T   D E F I N I T I O N

 ELEMENT TYPE  . . . . . . . . . . . . .( NPAR(1) ) . . =    3
     EQ.1, TRUSS ELEMENTS
     EQ.2, ELEMENTS CURRENTLY
     EQ.3, T3 ELEMENTS
     EQ.4, NOT AVAILABLE

 NUMBER OF ELEMENTS. . . . . . . . . . .( NPAR(2) ) . . =    1

    T3 ELEMENT INFORMATION:
    ELEMENT     NODE    NODE    NODE    MATERIAL
    NUMBER      I       J       K      SET NUMBER
        1    1        2        3           1

   Ele =        Location Matrix
        1    0    0    1    0    2    3

*** _Debug_ *** Column Heights
       0       1       2

*** _Debug_ *** Address of Diagonal Element
       1       2       4       7

	TOTAL SYSTEM DATA

     NUMBER OF EQUATIONS . . . . . . . . . . . . . .(NEQ) = 3
     NUMBER OF MATRIX ELEMENTS . . . . . . . . . . .(NWK) = 6
     MAXIMUM HALF BANDWIDTH  . . . . . . . . . . . .(MK ) = 3
     MEAN HALF BANDWIDTH . . . . . . . . . . . . . .(MM ) = 2


*** _Debug_ *** Banded stiffness matrix
  -8.82647e+04  -2.33168e+04  -2.33168e+04  -3.46154e+04  -6.66193e+04  -6.66193e+04


*** _Debug_ *** Full stiffness matrix
  -8.82647e+04  -2.33168e+04  -6.66193e+04
  -2.33168e+04  -2.33168e+04  -6.66193e+04
  -6.66193e+04  -6.66193e+04  -3.46154e+04

*** _Debug_ *** Banded stiffness matrix
  -8.82647e+04  -1.71572e+04   2.64168e-01   1.55725e+05   2.85714e+00   7.54767e-01


*** _Debug_ *** Full stiffness matrix
  -8.82647e+04   2.64168e-01   7.54767e-01
   2.64168e-01  -1.71572e+04   2.85714e+00
   7.54767e-01   2.85714e+00   1.55725e+05

 LOAD CASE    1


*** _Debug_ *** Displacement vector
  -1.53969e-02   1.53969e-02  -1.46009e-18

 D I S P L A C E M E N T S

  NODE           X-DISPLACEMENT    Y-DISPLACEMENT    Z-DISPLACEMENT
    1               0.00000e+00       0.00000e+00       0.00000e+00
    2              -1.53969e-02       0.00000e+00       0.00000e+00
    3               1.53969e-02      -1.46009e-18       0.00000e+00

 S T R E S S  C A L C U L A T I O N S  F O R  E L E M E N T  G R O U P    1

  ELEMENT       STRESS_XX       STRESS_YY       STRESS_XY
  NUMBER
    1    -3.55314e+03    -1.06594e+03     2.15404e+03


 S O L U T I O N   T I M E   L O G   I N   S E C 

     TIME FOR INPUT PHASE = 0.00000e+00
     TIME FOR CALCULATION OF STIFFNESS MATRIX = 0.00000e+00
     TIME FOR FACTORIZATION AND LOAD CASE SOLUTIONS = 0.00000e+00

     T O T A L   S O L U T I O N   T I M E = 0.00000e+00

