TITLE : T3 Patch Test - Improved Configuration with Internal Node
        (17:21:58 on June 12, 2025, Thursday)

C O N T R O L   I N F O R M A T I O N

      NUMBER OF NODAL POINTS . . . . . . . . . . (NUMNP)  =     5
      NUMBER OF ELEMENT GROUPS . . . . . . . . . (NUMEG)  =     1
      NUMBER OF LOAD CASES . . . . . . . . . . . (NLCASE) =     1
      SOLUTION MODE  . . . . . . . . . . . . . . (MODEX)  =     1
         EQ.0, DATA CHECK
         EQ.1, EXECUTION

 N O D A L   P O I N T   D A T A

    NODE       BOUNDARY                         NODAL POINT
   NUMBER  CONDITION  CODES                     COORDINATES
        1    1    1    1       0.00000e+00    0.00000e+00    0.00000e+00
        2    0    1    1       2.50000e+00    0.00000e+00    0.00000e+00
        3    0    0    1       2.50000e+00    3.00000e+00    0.00000e+00
        4    0    0    1       0.00000e+00    2.00000e+00    0.00000e+00
        5    0    0    1       1.00000e+00    1.60000e+00    0.00000e+00

 EQUATION NUMBERS

   NODE NUMBER   DEGREES OF FREEDOM
        N           X    Y    Z
        1           0    0    0
        2           1    0    0
        3           2    3    0
        4           4    5    0
        5           6    7    0

 L O A D   C A S E   D A T A

     LOAD CASE NUMBER . . . . . . . =     1
     NUMBER OF CONCENTRATED LOADS . =     4

    NODE       DIRECTION      LOAD
   NUMBER                   MAGNITUDE
      1            1       -1.00000e+01
      2            1        1.50000e+01
      3            1        1.00000e+01
      4            1       -1.50000e+01

 E L E M E N T   G R O U P   D A T A


 E L E M E N T   D E F I N I T I O N

 ELEMENT TYPE  . . . . . . . . . . . . .( NPAR(1) ) . . =    3
     EQ.1, TRUSS ELEMENTS
     EQ.2, ELEMENTS CURRENTLY
     EQ.3, T3 ELEMENTS
     EQ.4, NOT AVAILABLE

 NUMBER OF ELEMENTS. . . . . . . . . . .( NPAR(2) ) . . =    4

    T3 ELEMENT INFORMATION:
    ELEMENT     NODE    NODE    NODE    MATERIAL
    NUMBER      I       J       K      SET NUMBER
        1    1        2        5           1
        2    2        3        5           1
        3    3        4        5           1
        4    4        1        5           1

   Ele =        Location Matrix
        1    0    0    1    0    6    7
        2    1    0    2    3    6    7
        3    2    3    4    5    6    7
        4    4    5    0    0    6    7

*** _Debug_ *** Column Heights
       0       1       2       2       3       5       6

*** _Debug_ *** Address of Diagonal Element
       1       2       4       7      10      14      20      27

	TOTAL SYSTEM DATA

     NUMBER OF EQUATIONS . . . . . . . . . . . . . .(NEQ) = 7
     NUMBER OF MATRIX ELEMENTS . . . . . . . . . . .(NWK) = 26
     MAXIMUM HALF BANDWIDTH  . . . . . . . . . . . .(MK ) = 7
     MEAN HALF BANDWIDTH . . . . . . . . . . . . . .(MM ) = 3


*** _Debug_ *** Banded stiffness matrix
   7.35195e+02   5.48840e+02   1.77350e+02   6.74237e+02   2.61905e+02  -2.56410e+01
   1.55426e+03  -5.76923e+01  -9.61538e+00   1.32747e+03  -6.60714e+02   3.58242e+02
  -8.51648e+01   3.37397e+03   6.25000e+02  -1.62431e+03  -1.78571e+02  -7.16575e+02
  -6.33013e+02   3.44093e+03  -4.46429e+02  -1.47253e+03   6.25000e+02  -8.53480e+02
  -1.78571e+02   3.57143e+02

*** _Debug_ *** Full stiffness matrix
   7.35195e+02   1.77350e+02  -2.56410e+01   0.00000e+00   0.00000e+00  -6.33013e+02   3.57143e+02
   1.77350e+02   5.48840e+02   2.61905e+02  -9.61538e+00  -8.51648e+01  -7.16575e+02  -1.78571e+02
  -2.56410e+01   2.61905e+02   6.74237e+02  -5.76923e+01   3.58242e+02  -1.78571e+02  -8.53480e+02
   0.00000e+00  -9.61538e+00  -5.76923e+01   1.55426e+03  -6.60714e+02  -1.62431e+03   6.25000e+02
   0.00000e+00  -8.51648e+01   3.58242e+02  -6.60714e+02   1.32747e+03   6.25000e+02  -1.47253e+03
  -6.33013e+02  -7.16575e+02  -1.78571e+02  -1.62431e+03   6.25000e+02   3.37397e+03  -4.46429e+02
   3.57143e+02  -1.78571e+02  -8.53480e+02   6.25000e+02  -1.47253e+03  -4.46429e+02   3.44093e+03

*** _Debug_ *** Banded stiffness matrix
   7.35195e+02   5.06058e+02   2.41229e-01   5.31319e+02   5.29762e-01  -3.48765e-02
   1.54887e+03  -9.89960e-02  -1.90006e-02   7.56816e+02  -4.01843e-01   7.59165e-01
  -1.68291e-01   4.25475e+02  -2.60920e-01  -1.04936e+00   1.84579e-01  -1.11425e+00
  -8.61013e-01   1.22521e+03   1.73769e-01  -1.00925e+00   3.55482e-01  -1.31895e+00
  -5.23111e-01   4.85780e-01

*** _Debug_ *** Full stiffness matrix
   7.35195e+02   2.41229e-01  -3.48765e-02   0.00000e+00   0.00000e+00  -8.61013e-01   4.85780e-01
   2.41229e-01   5.06058e+02   5.29762e-01  -1.90006e-02  -1.68291e-01  -1.11425e+00  -5.23111e-01
  -3.48765e-02   5.29762e-01   5.31319e+02  -9.89960e-02   7.59165e-01   1.84579e-01  -1.31895e+00
   0.00000e+00  -1.90006e-02  -9.89960e-02   1.54887e+03  -4.01843e-01  -1.04936e+00   3.55482e-01
   0.00000e+00  -1.68291e-01   7.59165e-01  -4.01843e-01   7.56816e+02  -2.60920e-01  -1.00925e+00
  -8.61013e-01  -1.11425e+00   1.84579e-01  -1.04936e+00  -2.60920e-01   4.25475e+02   1.73769e-01
   4.85780e-01  -5.23111e-01  -1.31895e+00   3.55482e-01  -1.00925e+00   1.73769e-01   1.22521e+03

 LOAD CASE    1


*** _Debug_ *** Displacement vector
   2.50000e-02   2.50000e-02  -9.00000e-03  -2.21177e-17  -6.00000e-03
   1.00000e-02  -4.80000e-03

 D I S P L A C E M E N T S

  NODE           X-DISPLACEMENT    Y-DISPLACEMENT    Z-DISPLACEMENT
    1               0.00000e+00       0.00000e+00       0.00000e+00
    2               2.50000e-02       0.00000e+00       0.00000e+00
    3               2.50000e-02      -9.00000e-03       0.00000e+00
    4              -2.21177e-17      -6.00000e-03       0.00000e+00
    5               1.00000e-02      -4.80000e-03       0.00000e+00

 S T R E S S  C A L C U L A T I O N S  F O R  E L E M E N T  G R O U P    1

  ELEMENT       STRESS_XX       STRESS_YY       STRESS_XY
  NUMBER
    1     1.00000e+01     4.44089e-16    -4.00321e-15
    2     1.00000e+01     2.22045e-15    -2.66881e-15
    3     1.00000e+01    -8.88178e-16    -1.33440e-15
    4     1.00000e+01    -1.33227e-15    -3.00241e-15


 S O L U T I O N   T I M E   L O G   I N   S E C 

     TIME FOR INPUT PHASE = 1.56250e-02
     TIME FOR CALCULATION OF STIFFNESS MATRIX = 0.00000e+00
     TIME FOR FACTORIZATION AND LOAD CASE SOLUTIONS = 0.00000e+00

     T O T A L   S O L U T I O N   T I M E = 1.56250e-02

