TITLE : T3 Patch Test - Improved Configuration with Internal Node
        (12:56:9 on June 12, 2025, Thursday)

C O N T R O L   I N F O R M A T I O N

      NUMBER OF NODAL POINTS . . . . . . . . . . (NUMNP)  =     5
      NUMBER OF ELEMENT GROUPS . . . . . . . . . (NUMEG)  =     1
      NUMBER OF LOAD CASES . . . . . . . . . . . (NLCASE) =     1
      SOLUTION MODE  . . . . . . . . . . . . . . (MODEX)  =     1
         EQ.0, DATA CHECK
         EQ.1, EXECUTION

 N O D A L   P O I N T   D A T A

    NODE       BOUNDARY                         NODAL POINT
   NUMBER  CONDITION  CODES                     COORDINATES
        1    1    1    1       0.00000e+00    0.00000e+00    0.00000e+00
        2    0    0    1       1.00000e+00    0.00000e+00    0.00000e+00
        3    0    0    1       2.00000e+00    1.50000e+00    0.00000e+00
        4    1    0    1       0.00000e+00    1.00000e+00    0.00000e+00
        5    0    0    1       4.00000e-01    6.00000e-01    0.00000e+00

 EQUATION NUMBERS

   NODE NUMBER   DEGREES OF FREEDOM
        N           X    Y    Z
        1           0    0    0
        2           1    2    0
        3           3    4    0
        4           0    5    0
        5           6    7    0

 L O A D   C A S E   D A T A

     LOAD CASE NUMBER . . . . . . . =     1
     NUMBER OF CONCENTRATED LOADS . =     2

    NODE       DIRECTION      LOAD
   NUMBER                   MAGNITUDE
      2            1        1.00000e+02
      3            1        1.00000e+02

 E L E M E N T   G R O U P   D A T A


 E L E M E N T   D E F I N I T I O N

 ELEMENT TYPE  . . . . . . . . . . . . .( NPAR(1) ) . . =    3
     EQ.1, TRUSS ELEMENTS
     EQ.2, ELEMENTS CURRENTLY
     EQ.3, T3 ELEMENTS
     EQ.4, NOT AVAILABLE

 NUMBER OF ELEMENTS. . . . . . . . . . .( NPAR(2) ) . . =    4

    T3 ELEMENT INFORMATION:
    ELEMENT     NODE    NODE    NODE    MATERIAL
    NUMBER      I       J       K      SET NUMBER
        1    1        2        5           1
        2    2        3        5           1
        3    3        4        5           1
        4    4        1        5           1

   Ele =        Location Matrix
        1    0    0    1    2    6    7
        2    1    2    3    4    6    7
        3    3    4    0    5    6    7
        4    0    5    0    0    6    7

*** _Debug_ *** Column Heights
       0       1       2       3       2       5       6

*** _Debug_ *** Address of Diagonal Element
       1       2       4       7      11      14      20      27

	TOTAL SYSTEM DATA

     NUMBER OF EQUATIONS . . . . . . . . . . . . . .(NEQ) = 7
     NUMBER OF MATRIX ELEMENTS . . . . . . . . . . .(NWK) = 26
     MAXIMUM HALF BANDWIDTH  . . . . . . . . . . . .(MK ) = 7
     MEAN HALF BANDWIDTH . . . . . . . . . . . . . .(MM ) = 3


*** _Debug_ *** Banded stiffness matrix
   1.00586e+01   1.30348e+01  -4.85714e+00   2.96703e+00  -3.62637e-01   7.47253e-01
   2.96703e+00   1.42857e+00  -2.82418e+00  -6.37363e-01   1.95522e+01   2.82418e+00
   3.62637e-01   3.55311e+01   6.42857e+00  -1.42857e+00  -2.96703e+00   5.71429e+00
  -8.27839e+00   4.29716e+01  -7.14286e+00  -2.13324e+01  -2.96703e+00  -1.42857e+00
  -1.12546e+01   5.71429e+00

*** _Debug_ *** Full stiffness matrix
   1.00586e+01  -4.85714e+00   7.47253e-01  -6.37363e-01   0.00000e+00  -8.27839e+00   5.71429e+00
  -4.85714e+00   1.30348e+01  -3.62637e-01  -2.82418e+00   0.00000e+00   5.71429e+00  -1.12546e+01
   7.47253e-01  -3.62637e-01   2.96703e+00   1.42857e+00   3.62637e-01  -2.96703e+00  -1.42857e+00
  -6.37363e-01  -2.82418e+00   1.42857e+00   2.96703e+00   2.82418e+00  -1.42857e+00  -2.96703e+00
   0.00000e+00   0.00000e+00   3.62637e-01   2.82418e+00   1.95522e+01   6.42857e+00  -2.13324e+01
  -8.27839e+00   5.71429e+00  -2.96703e+00  -1.42857e+00   6.42857e+00   3.55311e+01  -7.14286e+00
   5.71429e+00  -1.12546e+01  -1.42857e+00  -2.96703e+00  -2.13324e+01  -7.14286e+00   4.29716e+01

*** _Debug_ *** Banded stiffness matrix
   1.00586e+01   1.06894e+01  -4.82884e-01   2.91152e+00  -1.68469e-04   7.42899e-02
   1.26135e+00   5.06743e-01  -2.92997e-01  -6.33649e-02   1.39798e+01   2.09332e+00
   1.24553e-01   2.27169e+01   5.19491e-01  -2.04851e-01  -8.07737e-01   1.60607e-01
  -8.23015e-01   6.70106e+00   1.32937e-01  -8.87368e-01  -3.29350e+00  -6.36958e-01
  -7.94738e-01   5.68099e-01

*** _Debug_ *** Full stiffness matrix
   1.00586e+01  -4.82884e-01   7.42899e-02  -6.33649e-02   0.00000e+00  -8.23015e-01   5.68099e-01
  -4.82884e-01   1.06894e+01  -1.68469e-04  -2.92997e-01   0.00000e+00   1.60607e-01  -7.94738e-01
   7.42899e-02  -1.68469e-04   2.91152e+00   5.06743e-01   1.24553e-01  -8.07737e-01  -6.36958e-01
  -6.33649e-02  -2.92997e-01   5.06743e-01   1.26135e+00   2.09332e+00  -2.04851e-01  -3.29350e+00
   0.00000e+00   0.00000e+00   1.24553e-01   2.09332e+00   1.39798e+01   5.19491e-01  -8.87368e-01
  -8.23015e-01   1.60607e-01  -8.07737e-01  -2.04851e-01   5.19491e-01   2.27169e+01   1.32937e-01
   5.68099e-01  -7.94738e-01  -6.36958e-01  -3.29350e+00  -8.87368e-01   1.32937e-01   6.70106e+00

 LOAD CASE    1


*** _Debug_ *** Displacement vector
   8.45037e+00  -6.57811e+00   4.73244e+01  -2.50993e+01  -3.02849e+00
   5.80478e+00  -3.54485e+00

 D I S P L A C E M E N T S

  NODE           X-DISPLACEMENT    Y-DISPLACEMENT    Z-DISPLACEMENT
    1               0.00000e+00       0.00000e+00       0.00000e+00
    2               8.45037e+00      -6.57811e+00       0.00000e+00
    3               4.73244e+01      -2.50993e+01       0.00000e+00
    4               0.00000e+00      -3.02849e+00       0.00000e+00
    5               5.80478e+00      -3.54485e+00       0.00000e+00

 S T R E S S  C A L C U L A T I O N S  F O R  E L E M E N T  G R O U P    1

  ELEMENT       STRESS_XX       STRESS_YY       STRESS_XY
  NUMBER
    1     8.78414e+03     1.11257e+03    -9.75796e+02
    2     1.82191e+04     7.94345e+01     1.28622e+03
    3     2.14214e+04    -1.36915e+03    -6.79332e+02
    4     1.49488e+04     1.45615e+03    -1.66131e+03


 S O L U T I O N   T I M E   L O G   I N   S E C 

     TIME FOR INPUT PHASE = 0.00000e+00
     TIME FOR CALCULATION OF STIFFNESS MATRIX = 0.00000e+00
     TIME FOR FACTORIZATION AND LOAD CASE SOLUTIONS = 0.00000e+00

     T O T A L   S O L U T I O N   T I M E = 0.00000e+00

